3 
4 
5  14 34 52 
6  07 20 35 50 
7  05 20 35 50 
8  05 20 35 50 
9  06 20 35 50 
10  05 20 34 49 
11  04 19 34 49 
12  04 19 34 49 
13  04 19 34 49 
14  04 19 34 49 
15  04 19 34 49 
16  04 19 34 49 
17  04 19 34 49 
18  04 19 35 50 
19  05 20 35 50 
20  05 20 35 50 
21  08 23 35 50 
22  05 20 39 54 
23  09 
0 
